
Gurobi 10.0.1 (win64) logging started Sun May  7 16:55:35 2023

Set parameter LogFile to value "logFiles/A-2L-A/A-2L-6U-17F-15V-120D-basic.log"
Gurobi Optimizer version 10.0.1 build v10.0.1rc0 (win64)

CPU model: Intel(R) Core(TM) i7-10700 CPU @ 2.90GHz, instruction set [SSE2|AVX|AVX2]
Thread count: 8 physical cores, 16 logical processors, using up to 16 threads

Optimize a model with 23117 rows, 330211 columns and 2099098 nonzeros
Model fingerprint: 0x76000627
Variable types: 1660 continuous, 328551 integer (328551 binary)
Coefficient statistics:
  Matrix range     [1e+00, 2e+05]
  Objective range  [4e+01, 2e+07]
  Bounds range     [1e+00, 1e+00]
  RHS range        [1e+00, 2e+06]
Presolve removed 9963 rows and 38980 columns
Presolve time: 3.34s
Presolved: 13154 rows, 291231 columns, 1697109 nonzeros
Variable types: 1633 continuous, 289598 integer (289583 binary)
Deterministic concurrent LP optimizer: primal simplex, dual simplex, and barrier
Showing barrier log only...

Root barrier log...

Ordering time: 1.12s

Barrier statistics:
 AA' NZ     : 7.528e+05
 Factor NZ  : 3.664e+06 (roughly 150 MB of memory)
 Factor Ops : 2.871e+09 (less than 1 second per iteration)
 Threads    : 5

                  Objective                Residual
Iter       Primal          Dual         Primal    Dual     Compl     Time
   0  -1.02498110e+16  6.60475521e+11  1.35e+09 4.04e+04  6.67e+10     7s
   1  -2.05205193e+15  9.58623675e+11  2.73e+08 2.05e+05  1.35e+10     7s
   2  -8.58577539e+13  6.04339088e+11  1.14e+07 1.16e-09  5.72e+08     7s
   3  -3.27383439e+12  3.06239956e+11  4.35e+05 1.40e-09  2.23e+07     8s
   4  -3.94166513e+11  1.94081253e+11  5.25e+04 9.31e-10  2.95e+06     8s
   5  -2.87323392e+11  1.22766938e+11  3.83e+04 6.98e-10  2.07e+06     8s
   6  -2.04248952e+11  8.55946393e+10  2.72e+04 7.57e-10  1.44e+06     8s
   7  -5.70866543e+10  5.32280507e+10  7.69e+03 8.15e-10  4.36e+05     9s
   8  -7.59932475e+09  2.22512665e+10  1.11e+03 9.31e-10  8.07e+04     9s
   9  -5.64134180e+08  1.14337918e+10  1.80e+02 9.17e-10  2.47e+04     9s
  10   2.72845967e+08  5.06269947e+09  7.13e+01 9.68e-10  9.58e+03     9s
  11   4.41220245e+08  3.49774699e+09  4.94e+01 1.56e-09  6.15e+03    10s
  12   5.90280525e+08  2.26264211e+09  3.04e+01 3.77e-09  3.46e+03    10s
  13   6.61312819e+08  1.98712125e+09  2.13e+01 4.19e-09  2.70e+03    10s
  14   7.01535806e+08  1.56359906e+09  1.63e+01 5.36e-09  1.81e+03    10s
  15   7.49607529e+08  1.48043207e+09  1.06e+01 7.30e-09  1.47e+03    11s
  16   7.59565457e+08  1.37105671e+09  9.55e+00 7.33e-09  1.24e+03    11s
  17   7.73013142e+08  1.17004108e+09  7.93e+00 6.13e-09  8.28e+02    11s
  18   7.89072003e+08  1.02834318e+09  5.98e+00 6.66e-09  5.08e+02    12s
  19   7.95007674e+08  9.77593067e+08  5.26e+00 6.52e-09  3.88e+02    12s
  20   8.10596527e+08  9.34602774e+08  3.37e+00 6.56e-09  2.52e+02    12s
  21   8.23600027e+08  8.94519554e+08  1.79e+00 6.05e-09  1.36e+02    13s
  22   8.24741827e+08  8.84597184e+08  1.66e+00 7.54e-09  1.14e+02    13s
  23   8.30246739e+08  8.67927720e+08  1.03e+00 7.45e-09  6.84e+01    13s
  24   8.31482569e+08  8.62216240e+08  8.92e-01 8.10e-09  5.48e+01    14s
  25   8.33076267e+08  8.58645325e+08  7.24e-01 8.24e-09  4.48e+01    14s
  26   8.33865335e+08  8.56141924e+08  6.44e-01 8.91e-09  3.85e+01    14s
  27   8.35347386e+08  8.52968086e+08  4.98e-01 7.88e-09  2.99e+01    14s
  28   8.37850596e+08  8.51644578e+08  2.81e-01 9.49e-09  2.34e+01    15s
  29   8.38341998e+08  8.50642327e+08  2.47e-01 9.21e-09  2.08e+01    15s
  30   8.38885541e+08  8.48259614e+08  2.11e-01 7.45e-09  1.55e+01    15s
  31   8.39586170e+08  8.47702729e+08  1.73e-01 9.39e-09  1.34e+01    16s
  32   8.40372887e+08  8.46570677e+08  1.33e-01 8.71e-09  1.02e+01    16s
  33   8.40944713e+08  8.46059522e+08  1.07e-01 1.01e-08  8.41e+00    17s
  34   8.41637143e+08  8.45618170e+08  7.69e-02 8.87e-09  6.55e+00    17s
  35   8.42183343e+08  8.45273819e+08  5.73e-02 1.06e-08  5.08e+00    17s
  36   8.42696765e+08  8.45108522e+08  3.97e-02 1.04e-08  3.99e+00    18s
  37   8.42929941e+08  8.44865935e+08  3.34e-02 1.11e-08  3.19e+00    18s
  38   8.43094011e+08  8.44753343e+08  2.88e-02 8.73e-09  2.73e+00    18s
  39   8.43275694e+08  8.44715922e+08  2.40e-02 1.07e-08  2.38e+00    19s
  40   8.43472179e+08  8.44530208e+08  1.88e-02 8.72e-09  1.74e+00    19s
  41   8.43661896e+08  8.44481127e+08  1.40e-02 8.64e-09  1.35e+00    20s
  42   8.43759156e+08  8.44386503e+08  1.15e-02 6.61e-09  1.03e+00    20s
  43   8.43945355e+08  8.44343209e+08  6.77e-03 7.12e-09  6.56e-01    20s
  44   8.44004920e+08  8.44316335e+08  5.32e-03 7.47e-09  5.14e-01    21s
  45   8.44063739e+08  8.44290760e+08  3.88e-03 7.41e-09  3.74e-01    21s
  46   8.44149795e+08  8.44261762e+08  1.82e-03 6.82e-09  1.85e-01    22s
  47   8.44210605e+08  8.44246258e+08  3.93e-04 6.23e-09  5.98e-02    22s
  48   8.44218932e+08  8.44232237e+08  2.11e-04 7.03e-09  2.21e-02    22s
  49   8.44222258e+08  8.44230666e+08  1.40e-04 7.53e-09  1.39e-02    23s
  50   8.44222903e+08  8.44230230e+08  1.26e-04 7.61e-09  1.21e-02    23s
  51   8.44226108e+08  8.44229118e+08  5.83e-05 8.38e-09  4.95e-03    23s
  52   8.44227552e+08  8.44229013e+08  2.82e-05 6.76e-09  2.41e-03    24s
  53   8.44228309e+08  8.44228990e+08  1.27e-05 6.11e-09  1.12e-03    24s
  54   8.44228812e+08  8.44228982e+08  2.97e-06 6.52e-09  2.81e-04    24s
  55   8.44228915e+08  8.44228969e+08  9.77e-07 6.53e-09  8.99e-05    25s
  56   8.44228964e+08  8.44228968e+08  1.89e-07 5.59e-09  6.50e-06    25s
  57   8.44228967e+08  8.44228967e+08  8.64e-09 5.55e-09  9.12e-08    26s
  58   8.44228967e+08  8.44228967e+08  6.12e-09 7.60e-09  2.76e-11    26s

Barrier solved model in 58 iterations and 25.88 seconds (20.12 work units)
Optimal objective 8.44228967e+08


Root crossover log...

    8890 DPushes remaining with DInf 0.0000000e+00                26s
       0 DPushes remaining with DInf 0.0000000e+00                26s

     835 PPushes remaining with PInf 4.4632110e-06                26s
       0 PPushes remaining with PInf 0.0000000e+00                27s

  Push phase complete: Pinf 0.0000000e+00, Dinf 4.5508175e-02     27s


Root simplex log...

Iteration    Objective       Primal Inf.    Dual Inf.      Time
    9725    8.4422897e+08   0.000000e+00   4.550810e-02     27s
    9726    8.4422897e+08   0.000000e+00   0.000000e+00     27s
Concurrent spin time: 0.01s

Solved with barrier
    9752    8.4422897e+08   0.000000e+00   0.000000e+00     27s
Extra simplex iterations after uncrush: 26

Root relaxation: objective 8.442290e+08, 9752 iterations, 22.75 seconds (11.00 work units)

    Nodes    |    Current Node    |     Objective Bounds      |     Work
 Expl Unexpl |  Obj  Depth IntInf | Incumbent    BestBd   Gap | It/Node Time

     0     0 8.4423e+08    0  392          - 8.4423e+08      -     -   28s
     0     0 8.4259e+08    0  402          - 8.4259e+08      -     -   46s
     0     0 8.4180e+08    0  364          - 8.4180e+08      -     -   54s
     0     0 8.4176e+08    0  364          - 8.4176e+08      -     -   60s
     0     0 8.4176e+08    0  364          - 8.4176e+08      -     -   62s
     0     0 8.4176e+08    0  366          - 8.4176e+08      -     -   63s
     0     0 8.4175e+08    0  410          - 8.4175e+08      -     -   70s
     0     0 8.4175e+08    0  402          - 8.4175e+08      -     -   74s
     0     0 8.4175e+08    0  403          - 8.4175e+08      -     -   75s
     0     0 8.4174e+08    0  412          - 8.4174e+08      -     -   82s
     0     0 8.4174e+08    0  422          - 8.4174e+08      -     -   85s
     0     0 8.4174e+08    0  431          - 8.4174e+08      -     -   86s
     0     0 8.4174e+08    0  418          - 8.4174e+08      -     -   89s
     0     0 8.4174e+08    0  425          - 8.4174e+08      -     -   91s
     0     0 8.4174e+08    0  409          - 8.4174e+08      -     -   93s
     0     0 8.4174e+08    0  418          - 8.4174e+08      -     -   96s
     0     0 8.4174e+08    0  434          - 8.4174e+08      -     -   97s
     0     0 8.4174e+08    0  422          - 8.4174e+08      -     -  100s
     0     0 8.4174e+08    0  413          - 8.4174e+08      -     -  102s
     0     0 8.4174e+08    0  394          - 8.4174e+08      -     -  103s
     0     2 8.4174e+08    0  394          - 8.4174e+08      -     -  165s
     3     8 8.4174e+08    2  400          - 8.4174e+08      -  1196  181s
     7    16 8.4174e+08    3  398          - 8.4174e+08      -  1126  209s
    15    24 8.4174e+08    4  398          - 8.4174e+08      -  1035  223s
    23    32 8.4173e+08    4  347          - 8.4174e+08      -   894  268s
    31    40 8.4174e+08    5  402          - 8.4174e+08      -  1111  280s
    39    48 8.4173e+08    5  363          - 8.4174e+08      -   994  316s
    47    57 8.4174e+08    6  383          - 8.4174e+08      -  1050  332s
    56    65 8.4173e+08    6  388          - 8.4174e+08      -   984  357s
    64    79 8.4174e+08    7  381          - 8.4174e+08      -   968  410s
    78   113 8.4174e+08    8  378          - 8.4174e+08      -   990  481s
   112   198 8.4174e+08   12  379          - 8.4174e+08      -   825  688s
   197   385 8.4174e+08   20  387          - 8.4174e+08      -   732 1105s
   386   837 8.4173e+08   39  375          - 8.4174e+08      -   641 1962s
   838  1258 8.4171e+08   92  380          - 8.4174e+08      -   537 2598s
  1259  2021 8.4169e+08  146  375          - 8.4174e+08      -   466 3286s
  2032  2839 8.4167e+08  248  376          - 8.4174e+08      -   388 3852s
  2856  3614 8.4165e+08  351  336          - 8.4174e+08      -   330 4393s
  3637  4426 8.4163e+08  432  357          - 8.4174e+08      -   304 4866s
  4449  5214 8.4161e+08  534  352          - 8.4174e+08      -   279 5270s
  5245  5991 8.4159e+08  636  342          - 8.4174e+08      -   261 5697s
  6030  6802 8.4157e+08  734  316          - 8.4174e+08      -   249 6096s
  6853  7619 8.4155e+08  836  334          - 8.4174e+08      -   237 6444s
  7677  7620 8.4155e+08  830  394          - 8.4174e+08      -   225 6500s
  7679  7621 8.4169e+08  169  407          - 8.4174e+08      -   225 6541s
H 7679  7239                    8.050096e+08 8.4174e+08  4.56%   225 6568s
H 7679  6877                    8.050348e+08 8.4174e+08  4.56%   225 6603s
  7681  6879 8.4162e+08  217  383 8.0503e+08 8.4172e+08  4.56%   225 6651s
  7682  6879 8.4150e+08  825  398 8.0503e+08 8.4172e+08  4.56%   225 6676s
  7683  6880 8.4159e+08  662  384 8.0503e+08 8.4172e+08  4.56%   225 6683s
  7684  6881 8.4171e+08    9  384 8.0503e+08 8.4171e+08  4.56%   225 6697s
  7685  6881 8.4151e+08  769  372 8.0503e+08 8.4171e+08  4.56%   225 6733s
  7686  6882 8.4160e+08  633  406 8.0503e+08 8.4171e+08  4.56%   225 6747s
  7688  6883 8.4163e+08  261  388 8.0503e+08 8.4171e+08  4.56%   225 6753s
  7689  6884 8.4168e+08  168  412 8.0503e+08 8.4171e+08  4.56%   224 6757s
H 7689  6540                    8.207982e+08 8.4171e+08  2.55%   224 6759s
  7690  6541 8.4168e+08  176  409 8.2080e+08 8.4171e+08  2.55%   224 6760s
  7691  6541 8.4158e+08  696  411 8.2080e+08 8.4171e+08  2.55%   224 6767s

Cutting planes:
  Gomory: 1
  Cover: 9
  Implied bound: 4
  Projected implied bound: 1
  Clique: 1
  MIR: 23
  Flow cover: 26
  GUB cover: 3
  Zero half: 3
  Network: 7
  RLT: 1
  Relax-and-lift: 10

Explored 7691 nodes (1790227 simplex iterations) in 6788.73 seconds (3031.19 work units)
Thread count was 16 (of 16 available processors)

Solution count 3: 8.20798e+08 8.05035e+08 8.0501e+08 

Solve interrupted
Best objective 8.207982299220e+08, best bound 8.417034663470e+08, gap 2.5469%

Gurobi 10.0.1 (linux64) logging started Wed May 10 08:14:56 2023

Set parameter LogFile to value "logFiles/A-2L-A/A-2L-6U-17F-15V-120D-basic.log"
Gurobi Optimizer version 10.0.1 build v10.0.1rc0 (linux64)

CPU model: Intel(R) Xeon(R) Gold 5115 CPU @ 2.40GHz, instruction set [SSE2|AVX|AVX2|AVX512]
Thread count: 20 physical cores, 40 logical processors, using up to 20 threads

Optimize a model with 21715 rows, 328797 columns and 1854550 nonzeros
Model fingerprint: 0x677d62d4
Variable types: 953 continuous, 327844 integer (327844 binary)
Coefficient statistics:
  Matrix range     [1e+00, 2e+05]
  Objective range  [4e+01, 2e+07]
  Bounds range     [1e+00, 1e+00]
  RHS range        [1e+00, 2e+06]
Presolve removed 9952 rows and 38973 columns (presolve time = 5s) ...
Presolve removed 9922 rows and 38943 columns
Presolve time: 5.06s
Presolved: 11793 rows, 289854 columns, 1492761 nonzeros
Variable types: 942 continuous, 288912 integer (288900 binary)
Deterministic concurrent LP optimizer: primal simplex, dual simplex, and barrier
Showing barrier log only...

Root barrier log...

Ordering time: 0.62s

Barrier statistics:
 AA' NZ     : 7.301e+05
 Factor NZ  : 5.588e+06 (roughly 170 MB of memory)
 Factor Ops : 8.279e+09 (less than 1 second per iteration)
 Threads    : 17

                  Objective                Residual
Iter       Primal          Dual         Primal    Dual     Compl     Time
   0  -1.02523452e+16  5.26427490e+11  1.35e+09 4.04e+04  6.62e+10     8s
   1  -1.97486583e+15  9.79862278e+11  2.61e+08 2.30e+05  1.29e+10     8s
   2  -1.00541239e+14  8.13052758e+11  1.33e+07 1.16e-09  6.65e+08     8s
   3  -7.09718264e+12  3.62078267e+11  9.39e+05 1.05e-09  4.78e+07     8s
   4  -7.96158430e+11  1.68172907e+11  1.05e+05 1.05e-09  5.61e+06     9s
   5  -3.64845900e+11  1.58871135e+11  4.84e+04 1.05e-09  2.71e+06     9s
   6  -1.70463890e+11  1.10982108e+11  2.27e+04 9.31e-10  1.30e+06     9s
   7  -4.23486348e+10  4.99568556e+10  5.70e+03 1.16e-09  3.44e+05     9s
   8  -1.11405102e+10  2.69764104e+10  1.57e+03 2.65e-09  1.09e+05     9s
   9  -2.32036100e+09  8.11522718e+09  4.08e+02 1.51e-09  2.66e+04     9s
  10   2.86431952e+08  2.17727782e+09  6.68e+01 1.89e-09  4.48e+03    10s
  11   5.48885728e+08  1.69371616e+09  3.28e+01 2.85e-09  2.58e+03    10s
  12   6.01487501e+08  1.48123197e+09  2.61e+01 3.20e-09  2.01e+03    10s
  13   6.53865155e+08  1.40931983e+09  1.95e+01 5.24e-09  1.67e+03    10s
  14   7.08932347e+08  1.16910262e+09  1.25e+01 4.54e-09  1.02e+03    10s
  15   7.36294415e+08  1.04673114e+09  9.08e+00 4.19e-09  6.93e+02    10s
  16   7.49986699e+08  9.65710368e+08  7.39e+00 3.84e-09  4.89e+02    11s
  17   7.71993010e+08  9.10299413e+08  4.69e+00 5.53e-09  3.01e+02    11s
  18   7.76984149e+08  8.96743567e+08  4.08e+00 5.48e-09  2.56e+02    11s
  19   7.81509827e+08  8.65880319e+08  3.53e+00 8.96e-09  1.78e+02    11s
  20   7.87248846e+08  8.47090462e+08  2.84e+00 5.47e-09  1.21e+02    11s
  21   8.05366645e+08  8.35883928e+08  7.34e-01 6.46e-09  5.53e+01    11s
  22   8.08347164e+08  8.29819219e+08  4.67e-01 6.11e-09  3.76e+01    12s
  23   8.08955641e+08  8.27662548e+08  4.18e-01 6.34e-09  3.23e+01    12s
  24   8.10193772e+08  8.25470481e+08  3.23e-01 6.87e-09  2.61e+01    12s
  25   8.11200304e+08  8.24657153e+08  2.55e-01 8.50e-09  2.29e+01    12s
  26   8.12620440e+08  8.22328889e+08  1.79e-01 8.47e-09  1.63e+01    12s
  27   8.14134841e+08  8.20671927e+08  1.02e-01 7.92e-09  1.10e+01    12s
  28   8.15234867e+08  8.19799286e+08  6.16e-02 8.85e-09  7.66e+00    12s
  29   8.15765582e+08  8.19159600e+08  4.47e-02 8.03e-09  5.68e+00    13s
  30   8.16231040e+08  8.19007266e+08  3.29e-02 6.96e-09  4.66e+00    13s
  31   8.16474737e+08  8.18861488e+08  2.74e-02 9.43e-09  4.01e+00    13s
  32   8.16726901e+08  8.18785412e+08  2.30e-02 8.85e-09  3.46e+00    13s
  33   8.17047106e+08  8.18602813e+08  1.79e-02 8.61e-09  2.61e+00    13s
  34   8.17314765e+08  8.18476654e+08  1.31e-02 8.76e-09  1.95e+00    14s
  35   8.17548624e+08  8.18320545e+08  9.29e-03 6.52e-09  1.30e+00    14s
  36   8.17791353e+08  8.18264392e+08  5.33e-03 8.61e-09  7.96e-01    14s
  37   8.17919134e+08  8.18218764e+08  3.25e-03 8.15e-09  5.05e-01    14s
  38   8.17984891e+08  8.18189515e+08  2.24e-03 8.82e-09  3.45e-01    14s
  39   8.18065037e+08  8.18159615e+08  1.02e-03 7.80e-09  1.59e-01    14s
  40   8.18081934e+08  8.18144273e+08  7.70e-04 8.03e-09  1.05e-01    15s
  41   8.18095029e+08  8.18140901e+08  5.79e-04 9.90e-09  7.71e-02    15s
  42   8.18115547e+08  8.18137579e+08  2.86e-04 7.80e-09  3.70e-02    15s
  43   8.18123412e+08  8.18136470e+08  1.72e-04 7.45e-09  2.19e-02    15s
  44   8.18133284e+08  8.18135806e+08  3.29e-05 6.46e-09  4.24e-03    15s
  45   8.18135353e+08  8.18135639e+08  3.85e-06 6.84e-09  4.82e-04    15s
  46   8.18135629e+08  8.18135630e+08  3.36e-07 8.34e-09  1.55e-06    15s
  47   8.18135630e+08  8.18135630e+08  1.92e-09 7.60e-09  1.16e-10    16s

Barrier solved model in 47 iterations and 15.65 seconds (15.76 work units)
Optimal objective 8.18135630e+08


Root crossover log...

    8892 DPushes remaining with DInf 0.0000000e+00                16s
       0 DPushes remaining with DInf 0.0000000e+00                16s

     987 PPushes remaining with PInf 0.0000000e+00                16s
       0 PPushes remaining with PInf 0.0000000e+00                16s

  Push phase complete: Pinf 0.0000000e+00, Dinf 3.3559907e+00     16s


Root simplex log...

Iteration    Objective       Primal Inf.    Dual Inf.      Time
    9872    8.1813563e+08   0.000000e+00   3.355991e+00     16s
    9874    8.1813563e+08   0.000000e+00   0.000000e+00     16s
Concurrent spin time: 0.00s

Solved with barrier
    9874    8.1813563e+08   0.000000e+00   0.000000e+00     16s

Root relaxation: objective 8.181356e+08, 9874 iterations, 10.10 seconds (7.56 work units)

    Nodes    |    Current Node    |     Objective Bounds      |     Work
 Expl Unexpl |  Obj  Depth IntInf | Incumbent    BestBd   Gap | It/Node Time

     0     0 8.1814e+08    0  207          - 8.1814e+08      -     -   17s
     0     0 8.1789e+08    0  228          - 8.1789e+08      -     -   23s
     0     0 8.1780e+08    0  243          - 8.1780e+08      -     -   41s
     0     0 8.1780e+08    0  244          - 8.1780e+08      -     -   41s
     0     0 8.1778e+08    0  217          - 8.1778e+08      -     -   44s
     0     0 8.1778e+08    0  228          - 8.1778e+08      -     -   47s
     0     0 8.1778e+08    0  232          - 8.1778e+08      -     -   48s
     0     0 8.1778e+08    0  247          - 8.1778e+08      -     -   50s
     0     0 8.1778e+08    0  248          - 8.1778e+08      -     -   51s
     0     0 8.1778e+08    0  269          - 8.1778e+08      -     -   53s
     0     0 8.1778e+08    0  248          - 8.1778e+08      -     -   55s
     0     0 8.1778e+08    0  257          - 8.1778e+08      -     -   55s
     0     0 8.1778e+08    0  257          - 8.1778e+08      -     -   55s
     0     0 8.1777e+08    0  240          - 8.1777e+08      -     -   56s
     0     0 8.1777e+08    0  245          - 8.1777e+08      -     -   57s
     0     0 8.1777e+08    0  242          - 8.1777e+08      -     -   58s
     0     0 8.1777e+08    0  252          - 8.1777e+08      -     -   59s
     0     0 8.1777e+08    0  260          - 8.1777e+08      -     -   60s
     0     0 8.1777e+08    0  259          - 8.1777e+08      -     -   61s
     0     0 8.1777e+08    0  262          - 8.1777e+08      -     -   62s
     0     0 8.1777e+08    0  263          - 8.1777e+08      -     -   63s
     0     0 8.1777e+08    0  262          - 8.1777e+08      -     -   64s
     0     0 8.1777e+08    0  255          - 8.1777e+08      -     -   67s
     0     2 8.1777e+08    0  247          - 8.1777e+08      -     -  138s
     1     4 8.1777e+08    1  245          - 8.1777e+08      -  5474  140s
     3     8 8.1777e+08    2  238          - 8.1777e+08      -  1878  145s
     7    16 8.1777e+08    3  227          - 8.1777e+08      -   968  150s
    15    32 8.1777e+08    4  233          - 8.1777e+08      -   591  197s
    31    52 8.1777e+08    5  221          - 8.1777e+08      -  1090  206s
    51    70 8.1777e+08    6  212          - 8.1777e+08      -   764  212s
    71    90 8.1777e+08    7  222          - 8.1777e+08      -   603  219s
    91   110 8.1777e+08    8  222          - 8.1777e+08      -   564  225s
   111   131 8.1777e+08    8  216          - 8.1777e+08      -   519  259s
   132   156 8.1777e+08    9  222          - 8.1777e+08      -   590  264s
   157   191 8.1777e+08   11  219          - 8.1777e+08      -   514  275s
   200   243 8.1777e+08   12  223          - 8.1777e+08      -   476  319s
   260   362 8.1777e+08   13  224          - 8.1777e+08      -   491  349s
   383   679 8.1776e+08   19  227          - 8.1777e+08      -   415  405s
   706  1517 8.1774e+08   33  176          - 8.1777e+08      -   337  506s
  1552  3292 8.1771e+08   70  178          - 8.1777e+08      -   250  648s
  3331  5134 8.1765e+08  118  165          - 8.1777e+08      -   175  753s
  5197  6916 8.1760e+08  191  107          - 8.1777e+08      -   146  834s
  6987  8877 8.1751e+08  265   81          - 8.1777e+08      -   121  911s
  8952 10799 8.1746e+08  355   96          - 8.1777e+08      -   104  978s
 10885 12765 8.1743e+08  458   83          - 8.1777e+08      -  92.3 1039s
 12854 12766 8.1744e+08  340  255          - 8.1777e+08      -  82.4 2883s
 12856 12767 8.1777e+08   12  215          - 8.1777e+08      -  82.4 2905s
 12857 12768 8.1192e+08  273  216          - 8.1777e+08      -  82.4 2921s
 12859 12769 8.1741e+08  568  239          - 8.1777e+08      -  82.4 2925s
 12862 12771 8.1739e+08  410  249          - 8.1777e+08      -  82.4 2933s
 12863 12772 8.1735e+08  366  230          - 8.1777e+08      -  82.4 2946s
 12867 12775 8.1745e+08  335  242          - 8.1745e+08      -  82.4 2952s
 12868 12775 8.1744e+08   28  202          - 8.1744e+08      -  82.4 2970s
 12869 12776 8.1744e+08   38  231          - 8.1744e+08      -  82.3 2989s
 12870 12777 8.1744e+08   37  246          - 8.1744e+08      -  82.3 2992s
 12871 12777 8.1743e+08   32  221          - 8.1743e+08      -  82.3 2999s
 12872 12778 8.1736e+08  269  201          - 8.1743e+08      -  82.3 3000s
 12876 12781 8.1724e+08  373  223          - 8.1741e+08      -  82.3 3009s
 12877 12781 8.1741e+08  244  237          - 8.1741e+08      -  82.3 3012s
 12878 12782 8.1726e+08  426  240          - 8.1741e+08      -  82.3 3016s
 12881 12784 8.1741e+08  466  242          - 8.1741e+08      -  82.3 3023s
 12882 12785 8.1741e+08  303  241          - 8.1741e+08      -  82.3 3026s
 12883 12785 8.1741e+08  255  238          - 8.1741e+08      -  82.3 3030s
 12885 12787 8.1741e+08   73  227          - 8.1741e+08      -  82.2 3037s
 12886 12787 8.1741e+08  345  226          - 8.1741e+08      -  82.2 3040s
 12890 12791 8.1741e+08  262  255          - 8.1741e+08      -  88.9 3049s
 12892 12792 8.1741e+08  175  208          - 8.1741e+08      -  88.8 3071s
 12893 12793 8.1741e+08  382  189          - 8.1741e+08      -  88.8 3096s
 12894 12794 8.1741e+08  179  214          - 8.1741e+08      -  88.8 3105s
 12896 12795 8.1708e+08  514  227          - 8.1741e+08      -  88.8 3114s
 12897 12796 8.1741e+08  191  239          - 8.1741e+08      -  88.8 3115s
 12899 12797 8.1741e+08  184  221          - 8.1741e+08      -  88.8 3130s
 12900 12798 8.1736e+08  463  224          - 8.1741e+08      -  88.8 3136s
 12902 12799 8.1741e+08  487  229          - 8.1741e+08      -  88.8 3145s
 12903 12800 8.1739e+08  423  241          - 8.1741e+08      -  88.8 3153s
 12904 12800 8.1730e+08  501  234          - 8.1741e+08      -  88.8 3156s
 12905 12801 8.1741e+08  263  228          - 8.1741e+08      -  88.7 3164s
 12906 12802 8.1741e+08  486  230          - 8.1741e+08      -  88.7 3170s
 12907 12802 8.1741e+08   47  232          - 8.1741e+08      -  88.7 3175s
 12910 12804 8.1716e+08  522  236          - 8.1741e+08      -  88.7 3183s
 12911 12805 8.1666e+08  569  248          - 8.1741e+08      -  88.7 3186s
 12912 12806 8.1741e+08  415  232          - 8.1741e+08      -  88.7 3191s
 12914 12807 8.1741e+08  242  238          - 8.1741e+08      -  88.7 3197s
 12915 12808 8.1741e+08  169  239          - 8.1741e+08      -  88.7 3200s
 12917 12809 8.1741e+08   74  242          - 8.1741e+08      -  88.7 3207s
 12918 12810 8.1718e+08  531  235          - 8.1741e+08      -  88.7 3212s
 12919 12810 8.1741e+08  429  235          - 8.1741e+08      -  88.7 3225s
 12920 12811 8.1739e+08  401  235          - 8.1739e+08      -  88.6 3589s
 12921 12815 8.1739e+08   30  223          - 8.1739e+08      -  13.5 3598s
 12923 12818 8.1739e+08   31  219          - 8.1739e+08      -  13.6 3608s
 12927 12825 8.1739e+08   32  218          - 8.1739e+08      -  13.8 3639s
H12930 12182                    7.508406e+08 8.1739e+08  8.86%  13.9 3639s
H12935 11587                    8.010896e+08 8.1739e+08  2.03%  14.1 3811s
H12945 11006                    8.017562e+08 8.1739e+08  1.95%  14.5 3812s
H12948 10455                    8.019279e+08 8.1739e+08  1.93%  14.7 3813s
 12951 10474 8.1735e+08   34  231 8.0193e+08 8.1738e+08  1.93%  15.1 3857s
 12971 10487 8.1735e+08   35  246 8.0193e+08 8.1737e+08  1.93%  20.6 5212s
 12991 10500 8.1734e+08   35  231 8.0193e+08 8.1737e+08  1.93%  21.9 5400s
H13002  9975                    8.124770e+08 8.1737e+08  0.60%  22.4 5400s
 13011  9992 8.1733e+08   36  214 8.1248e+08 8.1737e+08  0.60%  22.9 5410s
 13031 10021 8.1735e+08   36  246 8.1248e+08 8.1737e+08  0.60%  23.7 5500s
 13069 10048 8.1734e+08   37  229 8.1248e+08 8.1737e+08  0.60%  27.8 5515s
 13109 10072 8.1735e+08   38  223 8.1248e+08 8.1737e+08  0.60%  28.9 5530s
H13148  9583                    8.125618e+08 8.1737e+08  0.59%  29.9 5687s
H13165  9106                    8.125700e+08 8.1737e+08  0.59%  30.4 5688s
 13168  9161 8.1734e+08   40  180 8.1257e+08 8.1737e+08  0.59%  30.6 5708s
 13224  9186 8.1733e+08   41  223 8.1257e+08 8.1737e+08  0.59%  31.9 5722s
 13267  9231 8.1734e+08   42  217 8.1257e+08 8.1737e+08  0.59%  32.6 5741s
 13327  9259 8.1729e+08   43  197 8.1257e+08 8.1737e+08  0.59%  34.1 5758s
 13375  9305 8.1734e+08   44  216 8.1257e+08 8.1737e+08  0.59%  35.2 5778s
 13439  9336 8.1734e+08   45  225 8.1257e+08 8.1737e+08  0.59%  36.3 5797s
 13495  9392 8.1734e+08   46  231 8.1257e+08 8.1737e+08  0.59%  37.2 5813s
 13571  9432 8.1734e+08   47  231 8.1257e+08 8.1737e+08  0.59%  38.2 5829s
 13640  9487 8.1734e+08   48  220 8.1257e+08 8.1737e+08  0.59%  39.3 5846s
 13720  9510 8.1734e+08   49  223 8.1257e+08 8.1737e+08  0.59%  40.3 5875s
 13781  9555 8.1733e+08   50  239 8.1257e+08 8.1737e+08  0.59%  41.6 5893s
 13859  9578 8.1729e+08   51  184 8.1257e+08 8.1737e+08  0.59%  42.5 5922s
 13921  9628 8.1732e+08   52  219 8.1257e+08 8.1737e+08  0.59%  44.1 5941s
 14011  9661 8.1723e+08   53  215 8.1257e+08 8.1737e+08  0.59%  45.3 5960s
 14085  9721 8.1732e+08   54  239 8.1257e+08 8.1737e+08  0.59%  45.8 5983s
 14184  9805 8.1732e+08   55  232 8.1257e+08 8.1737e+08  0.59%  46.8 6004s
H14307  9316                    8.125968e+08 8.1737e+08  0.59%  47.6 6005s
 14316  9470 8.1732e+08   56  208 8.1260e+08 8.1737e+08  0.59%  47.7 6025s
H14487  9154                    8.126211e+08 8.1737e+08  0.58%  49.0 6050s
H14580  8719                    8.126501e+08 8.1737e+08  0.58%  50.2 6050s
 14691  8876 8.1731e+08   59  221 8.1265e+08 8.1737e+08  0.58%  50.5 6075s
H14713  8484                    8.126580e+08 8.1737e+08  0.58%  51.1 6076s
H14808  8087                    8.126889e+08 8.1737e+08  0.58%  51.8 6077s
 14919  8380 8.1731e+08   62  210 8.1269e+08 8.1737e+08  0.58%  52.2 6118s
H15214  7935                    8.126889e+08 8.1737e+08  0.58%  53.8 6119s
 15277  8250 8.1730e+08   65  189 8.1269e+08 8.1737e+08  0.58%  54.1 6150s
H15283  7919                    8.126889e+08 8.1737e+08  0.58%  54.2 6150s
H15418  7561                    8.126968e+08 8.1737e+08  0.57%  54.8 6151s
 15675  7794 8.1730e+08   68  197 8.1270e+08 8.1737e+08  0.57%  55.2 6180s
H15980  7395                    8.126969e+08 8.1737e+08  0.57%  56.1 6181s
 16062  7803 8.1730e+08   72  178 8.1270e+08 8.1737e+08  0.57%  56.3 6229s
H16205  7473                    8.126969e+08 8.1737e+08  0.57%  57.1 6229s
 16564  7711 8.1729e+08   75  194 8.1270e+08 8.1737e+08  0.57%  57.3 6260s
H16655  7413                    8.126969e+08 8.1737e+08  0.57%  58.2 6261s
 16941  7585 8.1729e+08   78  193 8.1270e+08 8.1737e+08  0.57%  58.6 6301s
H16948  7328                    8.126969e+08 8.1737e+08  0.57%  58.9 6302s
 17228  7728 8.1729e+08   80  199 8.1270e+08 8.1737e+08  0.57%  59.7 6352s
 17739  7974 8.1728e+08   83  212 8.1270e+08 8.1737e+08  0.57%  60.4 6385s
 18177  8289 8.1728e+08   87  187 8.1270e+08 8.1737e+08  0.57%  61.3 6427s
 18666  8473 8.1728e+08   89  177 8.1270e+08 8.1737e+08  0.57%  62.4 6569s
H18712  8214                    8.127267e+08 8.1737e+08  0.57%  63.2 6570s
 19027  8751 8.1724e+08   92  169 8.1273e+08 8.1737e+08  0.57%  63.8 6611s
H19208  8461                    8.127267e+08 8.1737e+08  0.57%  64.5 6611s
H19254  8228                    8.127268e+08 8.1737e+08  0.57%  64.5 6612s
 19713  8751 8.1727e+08   96  177 8.1273e+08 8.1737e+08  0.57%  64.4 6652s
 20439  9224 8.1721e+08   98  172 8.1273e+08 8.1737e+08  0.57%  64.9 6695s
 21243  9652 8.1727e+08  101  206 8.1273e+08 8.1737e+08  0.57%  65.5 6738s
 21982 10223 8.1727e+08  104  190 8.1273e+08 8.1737e+08  0.57%  66.3 6781s
H22235  9931                    8.127268e+08 8.1737e+08  0.57%  66.7 6782s
 22840 10529 8.1727e+08  107  220 8.1273e+08 8.1737e+08  0.57%  66.5 6824s
H23079 10253                    8.127268e+08 8.1737e+08  0.57%  66.8 6825s
H23586  9906                    8.127268e+08 8.1737e+08  0.57%  66.7 6825s
 23675 10734 8.1727e+08  111  145 8.1273e+08 8.1737e+08  0.57%  66.8 6869s
 24568 12570 8.1726e+08  114  151 8.1273e+08 8.1737e+08  0.57%  67.6 7019s
 26500 12625 8.1724e+08  135  118 8.1273e+08 8.1737e+08  0.57%  69.9 7062s
 26556 13314 8.1725e+08  136  126 8.1273e+08 8.1737e+08  0.57%  69.8 7103s
 27323 14057 8.1720e+08  140  148 8.1273e+08 8.1737e+08  0.57%  70.8 7140s
 28098 14866 8.1725e+08  144   97 8.1273e+08 8.1737e+08  0.57%  71.6 7177s
 28917 15689 8.1725e+08  150  111 8.1273e+08 8.1737e+08  0.57%  71.9 7214s
 29742 16511 8.1724e+08  155  124 8.1273e+08 8.1737e+08  0.57%  72.1 7262s
 30626 17439 8.1725e+08  170  105 8.1273e+08 8.1737e+08  0.57%  72.4 7301s
 31687 18283 8.1725e+08  180  105 8.1273e+08 8.1737e+08  0.57%  72.5 7353s
 32690 19275 8.1725e+08  188  105 8.1273e+08 8.1737e+08  0.57%  72.7 7396s
 33833 20347 8.1724e+08  195  124 8.1273e+08 8.1737e+08  0.57%  72.8 7442s
 35036 21502 8.1724e+08  201  108 8.1273e+08 8.1737e+08  0.57%  72.8 7489s
H36029 21502                    8.127268e+08 8.1737e+08  0.57%  72.5 7490s
 36201 22661 8.1724e+08  208  108 8.1273e+08 8.1737e+08  0.57%  72.6 7535s
 37366 24176 8.1724e+08  216  108 8.1273e+08 8.1737e+08  0.57%  72.4 7583s
 38913 25658 8.1724e+08  225  112 8.1273e+08 8.1737e+08  0.57%  71.8 7634s
 40458 27137 8.1724e+08  233  139 8.1273e+08 8.1737e+08  0.57%  71.3 7693s
 41974 28514 8.1724e+08  241  121 8.1273e+08 8.1737e+08  0.57%  71.3 7751s
H43135 28514                    8.127268e+08 8.1737e+08  0.57%  71.1 7752s
 43383 28534 8.1724e+08  249  159 8.1273e+08 8.1737e+08  0.57%  71.1 7879s
H43397 28533                    8.127517e+08 8.1737e+08  0.57%  71.1 7879s
 43403 30061 8.1721e+08  249  124 8.1275e+08 8.1737e+08  0.57%  71.1 7932s
 44990 31335 8.1723e+08  261  109 8.1275e+08 8.1737e+08  0.57%  70.8 7997s
H45202 31335                    8.127517e+08 8.1737e+08  0.57%  71.6 7997s
 46365 32871 8.1723e+08  269  129 8.1275e+08 8.1737e+08  0.57%  70.9 8051s
H46538 32871                    8.127517e+08 8.1737e+08  0.57%  71.7 8052s
H47388 32871                    8.127517e+08 8.1737e+08  0.57%  71.2 8053s

Cutting planes:
  Gomory: 4
  Cover: 26
  Implied bound: 25
  Clique: 3
  MIR: 56
  StrongCG: 3
  Flow cover: 127
  GUB cover: 5
  Zero half: 2
  Network: 9
  RLT: 7
  Relax-and-lift: 24

Explored 47945 nodes (4495932 simplex iterations) in 10800.50 seconds (12369.09 work units)
Thread count was 20 (of 40 available processors)

Solution count 10: 8.12752e+08 8.12752e+08 8.12752e+08 ... 8.12727e+08

Time limit reached
Best objective 8.127517370710e+08, best bound 8.173667467549e+08, gap 0.5678%
